n_nodes = 990;
M = 6701;
n_domains = 18;
domain_link_weights = [|0,6701,6701,358,6701,6701,6701,6701,6701,6701,6701,6701,6701,6701,6701,6701,6701,6701|6701,0,6701,6701,6701,479,344,264,6701,6701,6701,6701,6701,6701,6701,6701,6701,6701|6701,6701,0,6701,6701,6701,6701,6701,6701,972,6701,6701,6701,6701,1788,6701,6701,6701|6701,6701,6701,0,6701,6701,6701,6701,6701,6701,6701,6701,6701,6701,6701,6701,6701,6701|6701,6701,6701,6701,0,364,358,173,6701,6701,6701,6701,6701,6701,6701,6701,6701,6223|6701,6701,6701,6701,6701,0,6701,6701,6701,6701,6701,6701,6701,6701,6701,6701,6701,6701|6701,6701,6701,6701,6701,6701,0,6701,5585,6701,6701,6701,6701,6701,6701,6701,6701,6701|6701,6701,6701,6701,6701,6701,6701,0,6701,6701,6701,6701,6701,6701,6701,6701,6701,6701|6701,6701,6701,6701,6701,6701,6701,6701,0,6701,6701,6701,6701,6701,6701,1148,556,350|6701,6701,6701,6701,6701,6701,6701,6701,6701,0,6701,6701,6701,2562,6701,943,6701,852|6701,6701,6701,6701,6701,6701,6701,6701,6701,6701,0,1141,6701,6701,6701,2795,6701,6701|6701,6701,6701,6701,6701,6701,6701,6701,6701,6701,6701,0,492,6701,6701,2963,6701,3855|6701,6701,6701,6701,6701,6701,6701,6701,6701,6701,6701,6701,0,575,1995,2807,6701,6701|6701,6701,6701,6701,6701,6701,6701,6701,6701,6701,6701,6701,6701,0,1425,6701,6701,6701|6701,6701,6701,6701,6701,6701,6701,6701,6701,6701,6701,6701,6701,6701,0,1291,6701,1872|6701,6701,6701,6701,6701,6701,6701,6701,6701,6701,6701,6701,6701,6701,6701,0,704,916|6701,6701,6701,6701,6701,6701,6701,6701,6701,6701,6701,6701,6701,6701,6701,6701,0,6701|6701,6701,6701,6701,6701,6701,6701,6701,6701,6701,6701,6701,6701,6701,6701,6701,6701,0|];
num_node_links = 1975;
node_links = [|1,3|1,4|2,6|2,7|2,8|3,10|3,15|5,6|5,7|5,8|5,18|7,9|9,16|9,17|9,18|10,14|10,16|10,18|11,12|11,16|12,13|12,16|12,18|13,14|13,15|13,16|14,15|15,16|15,18|16,17|16,18|1,19|19,1|1,48|48,1|1,120|120,1|1,123|123,1|1,146|146,1|1,149|149,1|1,161|161,1|1,185|185,1|1,233|233,1|1,254|254,1|1,267|267,1|1,314|314,1|1,368|368,1|1,395|395,1|1,405|405,1|1,407|407,1|1,409|409,1|1,450|450,1|1,455|455,1|1,466|466,1|1,473|473,1|1,489|489,1|1,490|490,1|1,560|560,1|1,631|631,1|1,643|643,1|1,646|646,1|1,656|656,1|1,666|666,1|1,669|669,1|1,677|677,1|1,706|706,1|1,742|742,1|1,756|756,1|1,813|813,1|1,828|828,1|1,831|831,1|1,842|842,1|1,861|861,1|1,868|868,1|1,870|870,1|1,878|878,1|1,887|887,1|1,893|893,1|1,895|895,1|1,902|902,1|1,918|918,1|1,931|931,1|1,934|934,1|1,954|954,1|1,955|955,1|1,977|977,1|1,980|980,1|1,982|982,1|2,20|20,2|2,38|38,2|2,53|53,2|2,63|63,2|2,71|71,2|2,87|87,2|2,111|111,2|2,135|135,2|2,140|140,2|2,141|141,2|2,179|179,2|2,225|225,2|2,226|226,2|2,251|251,2|2,283|283,2|2,287|287,2|2,312|312,2|2,338|338,2|2,344|344,2|2,401|401,2|2,413|413,2|2,428|428,2|2,431|431,2|2,474|474,2|2,498|498,2|2,509|509,2|2,582|582,2|2,600|600,2|2,606|606,2|2,608|608,2|2,615|615,2|2,621|621,2|2,639|639,2|2,641|641,2|2,682|682,2|2,707|707,2|2,712|712,2|2,726|726,2|2,738|738,2|2,783|783,2|2,786|786,2|2,789|789,2|2,793|793,2|2,804|804,2|2,807|807,2|2,826|826,2|2,829|829,2|2,844|844,2|2,855|855,2|2,910|910,2|2,923|923,2|2,929|929,2|2,959|959,2|2,989|989,2|3,21|21,3|3,46|46,3|3,61|61,3|3,81|81,3|3,85|85,3|3,93|93,3|3,102|102,3|3,110|110,3|3,193|193,3|3,196|196,3|3,215|215,3|3,237|237,3|3,247|247,3|3,279|279,3|3,311|311,3|3,329|329,3|3,336|336,3|3,337|337,3|3,374|374,3|3,394|394,3|3,397|397,3|3,432|432,3|3,444|444,3|3,446|446,3|3,478|478,3|3,479|479,3|3,486|486,3|3,499|499,3|3,525|525,3|3,597|597,3|3,604|604,3|3,634|634,3|3,660|660,3|3,665|665,3|3,696|696,3|3,705|705,3|3,750|750,3|3,775|775,3|3,780|780,3|3,792|792,3|3,802|802,3|3,809|809,3|3,834|834,3|3,872|872,3|3,873|873,3|3,877|877,3|3,897|897,3|3,930|930,3|3,940|940,3|3,961|961,3|3,962|962,3|3,972|972,3|3,985|985,3|3,988|988,3|4,22|22,4|4,37|37,4|4,104|104,4|4,176|176,4|4,178|178,4|4,202|202,4|4,210|210,4|4,230|230,4|4,282|282,4|4,308|308,4|4,360|360,4|4,364|364,4|4,365|365,4|4,369|369,4|4,378|378,4|4,383|383,4|4,419|419,4|4,442|442,4|4,467|467,4|4,477|477,4|4,492|492,4|4,524|524,4|4,547|547,4|4,590|590,4|4,593|593,4|4,598|598,4|4,599|599,4|4,609|609,4|4,616|616,4|4,628|628,4|4,657|657,4|4,662|662,4|4,668|668,4|4,688|688,4|4,735|735,4|4,754|754,4|4,768|768,4|4,769|769,4|4,770|770,4|4,785|785,4|4,800|800,4|4,812|812,4|4,830|830,4|4,836|836,4|4,859|859,4|4,867|867,4|4,874|874,4|4,890|890,4|4,891|891,4|4,900|900,4|4,909|909,4|4,952|952,4|4,958|958,4|4,967|967,4|5,23|23,5|5,99|99,5|5,100|100,5|5,130|130,5|5,133|133,5|5,142|142,5|5,145|145,5|5,153|153,5|5,159|159,5|5,173|173,5|5,182|182,5|5,191|191,5|5,195|195,5|5,227|227,5|5,250|250,5|5,253|253,5|5,306|306,5|5,375|375,5|5,411|411,5|5,427|427,5|5,435|435,5|5,462|462,5|5,465|465,5|5,517|517,5|5,533|533,5|5,537|537,5|5,543|543,5|5,568|568,5|5,588|588,5|5,594|594,5|5,620|620,5|5,674|674,5|5,675|675,5|5,689|689,5|5,699|699,5|5,701|701,5|5,702|702,5|5,713|713,5|5,733|733,5|5,766|766,5|5,798|798,5|5,817|817,5|5,819|819,5|5,832|832,5|5,853|853,5|5,879|879,5|5,892|892,5|5,908|908,5|5,914|914,5|5,933|933,5|5,942|942,5|5,944|944,5|5,965|965,5|5,981|981,5|6,24|24,6|6,50|50,6|6,51|51,6|6,67|67,6|6,84|84,6|6,89|89,6|6,188|188,6|6,197|197,6|6,203|203,6|6,242|242,6|6,243|243,6|6,248|248,6|6,256|256,6|6,265|265,6|6,278|278,6|6,320|320,6|6,340|340,6|6,348|348,6|6,366|366,6|6,376|376,6|6,410|410,6|6,414|414,6|6,448|448,6|6,495|495,6|6,507|507,6|6,542|542,6|6,545|545,6|6,549|549,6|6,551|551,6|6,554|554,6|6,561|561,6|6,576|576,6|6,578|578,6|6,626|626,6|6,630|630,6|6,632|632,6|6,652|652,6|6,678|678,6|6,687|687,6|6,698|698,6|6,717|717,6|6,734|734,6|6,751|751,6|6,759|759,6|6,803|803,6|6,808|808,6|6,839|839,6|6,841|841,6|6,849|849,6|6,899|899,6|6,906|906,6|6,938|938,6|6,939|939,6|6,953|953,6|7,25|25,7|7,45|45,7|7,56|56,7|7,77|77,7|7,116|116,7|7,131|131,7|7,158|158,7|7,201|201,7|7,222|222,7|7,264|264,7|7,273|273,7|7,298|298,7|7,302|302,7|7,339|339,7|7,361|361,7|7,363|363,7|7,385|385,7|7,398|398,7|7,439|439,7|7,472|472,7|7,482|482,7|7,496|496,7|7,520|520,7|7,534|534,7|7,546|546,7|7,552|552,7|7,553|553,7|7,562|562,7|7,642|642,7|7,647|647,7|7,648|648,7|7,659|659,7|7,664|664,7|7,673|673,7|7,676|676,7|7,680|680,7|7,723|723,7|7,724|724,7|7,765|765,7|7,781|781,7|7,784|784,7|7,796|796,7|7,810|810,7|7,816|816,7|7,858|858,7|7,863|863,7|7,871|871,7|7,883|883,7|7,901|901,7|7,904|904,7|7,907|907,7|7,911|911,7|7,922|922,7|7,960|960,7|8,26|26,8|8,59|59,8|8,60|60,8|8,72|72,8|8,76|76,8|8,82|82,8|8,97|97,8|8,108|108,8|8,165|165,8|8,181|181,8|8,192|192,8|8,199|199,8|8,214|214,8|8,221|221,8|8,232|232,8|8,241|241,8|8,270|270,8|8,284|284,8|8,286|286,8|8,315|315,8|8,318|318,8|8,323|323,8|8,328|328,8|8,377|377,8|8,412|412,8|8,421|421,8|8,434|434,8|8,438|438,8|8,459|459,8|8,471|471,8|8,475|475,8|8,485|485,8|8,487|487,8|8,488|488,8|8,538|538,8|8,550|550,8|8,603|603,8|8,610|610,8|8,649|649,8|8,655|655,8|8,667|667,8|8,690|690,8|8,710|710,8|8,732|732,8|8,743|743,8|8,779|779,8|8,801|801,8|8,814|814,8|8,823|823,8|8,838|838,8|8,866|866,8|8,880|880,8|8,926|926,8|8,946|946,8|9,27|27,9|9,43|43,9|9,52|52,9|9,58|58,9|9,69|69,9|9,79|79,9|9,94|94,9|9,106|106,9|9,113|113,9|9,129|129,9|9,134|134,9|9,138|138,9|9,172|172,9|9,205|205,9|9,209|209,9|9,240|240,9|9,245|245,9|9,255|255,9|9,277|277,9|9,292|292,9|9,299|299,9|9,319|319,9|9,326|326,9|9,347|347,9|9,357|357,9|9,381|381,9|9,433|433,9|9,476|476,9|9,504|504,9|9,528|528,9|9,544|544,9|9,565|565,9|9,569|569,9|9,589|589,9|9,605|605,9|9,607|607,9|9,618|618,9|9,651|651,9|9,719|719,9|9,757|757,9|9,758|758,9|9,776|776,9|9,795|795,9|9,805|805,9|9,815|815,9|9,835|835,9|9,847|847,9|9,905|905,9|9,924|924,9|9,936|936,9|9,941|941,9|9,949|949,9|9,966|966,9|9,969|969,9|10,28|28,10|10,54|54,10|10,90|90,10|10,98|98,10|10,107|107,10|10,109|109,10|10,132|132,10|10,147|147,10|10,150|150,10|10,154|154,10|10,155|155,10|10,206|206,10|10,235|235,10|10,236|236,10|10,239|239,10|10,266|266,10|10,285|285,10|10,297|297,10|10,304|304,10|10,310|310,10|10,325|325,10|10,333|333,10|10,334|334,10|10,367|367,10|10,373|373,10|10,384|384,10|10,396|396,10|10,403|403,10|10,423|423,10|10,468|468,10|10,500|500,10|10,505|505,10|10,511|511,10|10,513|513,10|10,526|526,10|10,540|540,10|10,577|577,10|10,585|585,10|10,623|623,10|10,638|638,10|10,693|693,10|10,722|722,10|10,737|737,10|10,753|753,10|10,755|755,10|10,762|762,10|10,764|764,10|10,790|790,10|10,797|797,10|10,848|848,10|10,862|862,10|10,864|864,10|10,885|885,10|10,990|990,10|11,29|29,11|11,80|80,11|11,86|86,11|11,105|105,11|11,136|136,11|11,137|137,11|11,148|148,11|11,160|160,11|11,169|169,11|11,186|186,11|11,194|194,11|11,212|212,11|11,213|213,11|11,234|234,11|11,249|249,11|11,257|257,11|11,288|288,11|11,300|300,11|11,301|301,11|11,313|313,11|11,322|322,11|11,341|341,11|11,349|349,11|11,371|371,11|11,386|386,11|11,390|390,11|11,458|458,11|11,510|510,11|11,519|519,11|11,557|557,11|11,571|571,11|11,592|592,11|11,595|595,11|11,640|640,11|11,661|661,11|11,704|704,11|11,730|730,11|11,745|745,11|11,746|746,11|11,752|752,11|11,761|761,11|11,773|773,11|11,794|794,11|11,821|821,11|11,833|833,11|11,837|837,11|11,843|843,11|11,882|882,11|11,889|889,11|11,915|915,11|11,921|921,11|11,968|968,11|11,973|973,11|11,983|983,11|12,30|30,12|12,47|47,12|12,49|49,12|12,92|92,12|12,101|101,12|12,114|114,12|12,125|125,12|12,143|143,12|12,168|168,12|12,177|177,12|12,184|184,12|12,198|198,12|12,200|200,12|12,208|208,12|12,229|229,12|12,350|350,12|12,351|351,12|12,380|380,12|12,430|430,12|12,440|440,12|12,451|451,12|12,453|453,12|12,480|480,12|12,502|502,12|12,515|515,12|12,516|516,12|12,539|539,12|12,563|563,12|12,567|567,12|12,575|575,12|12,579|579,12|12,581|581,12|12,591|591,12|12,596|596,12|12,611|611,12|12,612|612,12|12,622|622,12|12,633|633,12|12,636|636,12|12,670|670,12|12,716|716,12|12,725|725,12|12,729|729,12|12,739|739,12|12,744|744,12|12,806|806,12|12,822|822,12|12,876|876,12|12,896|896,12|12,898|898,12|12,920|920,12|12,927|927,12|12,963|963,12|12,979|979,12|13,31|31,13|13,42|42,13|13,57|57,13|13,62|62,13|13,73|73,13|13,75|75,13|13,83|83,13|13,103|103,13|13,118|118,13|13,119|119,13|13,128|128,13|13,157|157,13|13,163|163,13|13,164|164,13|13,166|166,13|13,276|276,13|13,296|296,13|13,307|307,13|13,352|352,13|13,355|355,13|13,356|356,13|13,382|382,13|13,399|399,13|13,424|424,13|13,425|425,13|13,447|447,13|13,457|457,13|13,483|483,13|13,493|493,13|13,497|497,13|13,501|501,13|13,512|512,13|13,527|527,13|13,532|532,13|13,555|555,13|13,564|564,13|13,570|570,13|13,572|572,13|13,586|586,13|13,601|601,13|13,619|619,13|13,625|625,13|13,635|635,13|13,637|637,13|13,679|679,13|13,681|681,13|13,685|685,13|13,692|692,13|13,721|721,13|13,791|791,13|13,852|852,13|13,860|860,13|13,932|932,13|13,957|957,13|14,32|32,14|14,65|65,14|14,91|91,14|14,95|95,14|14,96|96,14|14,122|122,14|14,144|144,14|14,151|151,14|14,174|174,14|14,211|211,14|14,216|216,14|14,218|218,14|14,246|246,14|14,268|268,14|14,281|281,14|14,289|289,14|14,291|291,14|14,294|294,14|14,309|309,14|14,324|324,14|14,330|330,14|14,331|331,14|14,346|346,14|14,370|370,14|14,420|420,14|14,426|426,14|14,429|429,14|14,445|445,14|14,460|460,14|14,464|464,14|14,503|503,14|14,508|508,14|14,529|529,14|14,530|530,14|14,558|558,14|14,566|566,14|14,613|613,14|14,617|617,14|14,627|627,14|14,686|686,14|14,691|691,14|14,694|694,14|14,715|715,14|14,749|749,14|14,771|771,14|14,778|778,14|14,850|850,14|14,865|865,14|14,884|884,14|14,903|903,14|14,919|919,14|14,928|928,14|14,943|943,14|14,964|964,14|15,33|33,15|15,66|66,15|15,88|88,15|15,121|121,15|15,139|139,15|15,152|152,15|15,167|167,15|15,170|170,15|15,183|183,15|15,220|220,15|15,223|223,15|15,224|224,15|15,252|252,15|15,258|258,15|15,262|262,15|15,263|263,15|15,275|275,15|15,316|316,15|15,327|327,15|15,354|354,15|15,358|358,15|15,362|362,15|15,372|372,15|15,392|392,15|15,393|393,15|15,408|408,15|15,415|415,15|15,422|422,15|15,436|436,15|15,454|454,15|15,484|484,15|15,523|523,15|15,541|541,15|15,584|584,15|15,602|602,15|15,644|644,15|15,645|645,15|15,653|653,15|15,658|658,15|15,671|671,15|15,683|683,15|15,700|700,15|15,711|711,15|15,728|728,15|15,782|782,15|15,811|811,15|15,820|820,15|15,825|825,15|15,840|840,15|15,845|845,15|15,856|856,15|15,937|937,15|15,947|947,15|15,984|984,15|16,34|34,16|16,41|41,16|16,112|112,16|16,124|124,16|16,126|126,16|16,162|162,16|16,187|187,16|16,189|189,16|16,204|204,16|16,260|260,16|16,261|261,16|16,274|274,16|16,332|332,16|16,335|335,16|16,342|342,16|16,353|353,16|16,402|402,16|16,437|437,16|16,449|449,16|16,456|456,16|16,470|470,16|16,494|494,16|16,506|506,16|16,548|548,16|16,556|556,16|16,559|559,16|16,573|573,16|16,574|574,16|16,580|580,16|16,583|583,16|16,650|650,16|16,654|654,16|16,672|672,16|16,703|703,16|16,708|708,16|16,714|714,16|16,718|718,16|16,720|720,16|16,731|731,16|16,741|741,16|16,760|760,16|16,767|767,16|16,846|846,16|16,869|869,16|16,875|875,16|16,881|881,16|16,894|894,16|16,913|913,16|16,917|917,16|16,950|950,16|16,971|971,16|16,974|974,16|16,975|975,16|16,978|978,16|17,35|35,17|17,39|39,17|17,40|40,17|17,55|55,17|17,68|68,17|17,70|70,17|17,74|74,17|17,78|78,17|17,115|115,17|17,117|117,17|17,171|171,17|17,175|175,17|17,190|190,17|17,217|217,17|17,219|219,17|17,228|228,17|17,238|238,17|17,244|244,17|17,259|259,17|17,272|272,17|17,295|295,17|17,305|305,17|17,317|317,17|17,321|321,17|17,387|387,17|17,388|388,17|17,416|416,17|17,417|417,17|17,452|452,17|17,469|469,17|17,491|491,17|17,521|521,17|17,522|522,17|17,531|531,17|17,535|535,17|17,536|536,17|17,587|587,17|17,629|629,17|17,709|709,17|17,736|736,17|17,740|740,17|17,772|772,17|17,774|774,17|17,799|799,17|17,824|824,17|17,851|851,17|17,886|886,17|17,888|888,17|17,935|935,17|17,948|948,17|17,951|951,17|17,956|956,17|17,970|970,17|17,987|987,17|18,36|36,18|18,44|44,18|18,64|64,18|18,127|127,18|18,156|156,18|18,180|180,18|18,207|207,18|18,231|231,18|18,269|269,18|18,271|271,18|18,280|280,18|18,290|290,18|18,293|293,18|18,303|303,18|18,343|343,18|18,345|345,18|18,359|359,18|18,379|379,18|18,389|389,18|18,391|391,18|18,400|400,18|18,404|404,18|18,406|406,18|18,418|418,18|18,441|441,18|18,443|443,18|18,461|461,18|18,463|463,18|18,481|481,18|18,514|514,18|18,518|518,18|18,614|614,18|18,624|624,18|18,663|663,18|18,684|684,18|18,695|695,18|18,697|697,18|18,727|727,18|18,747|747,18|18,748|748,18|18,763|763,18|18,777|777,18|18,787|787,18|18,788|788,18|18,818|818,18|18,827|827,18|18,854|854,18|18,857|857,18|18,912|912,18|18,916|916,18|18,925|925,18|18,945|945,18|18,976|976,18|18,986|986,18|];
nodes = [|1,9,0,0,0,0,1,1|2,9,0,0,0,0,1,2|3,9,0,0,0,0,1,3|4,9,0,0,0,0,1,4|5,9,0,0,0,0,1,5|6,9,0,0,0,0,1,6|7,9,0,0,0,0,1,7|8,9,0,0,0,0,1,8|9,9,0,0,0,0,1,9|10,9,0,0,0,0,1,10|11,9,0,0,0,0,1,11|12,9,0,0,0,0,1,12|13,9,0,0,0,0,1,13|14,9,0,0,0,0,1,14|15,9,0,0,0,0,1,15|16,9,0,0,0,0,1,16|17,9,0,0,0,0,1,17|18,9,0,0,0,0,1,18|19,10,0,0,0,0,1,1|20,10,0,0,0,0,1,2|21,10,0,0,0,0,1,3|22,10,0,0,0,0,1,4|23,10,0,0,0,0,1,5|24,10,0,0,0,0,1,6|25,10,0,0,0,0,1,7|26,10,0,0,0,0,1,8|27,10,0,0,0,0,1,9|28,10,0,0,0,0,1,10|29,10,0,0,0,0,1,11|30,10,0,0,0,0,1,12|31,10,0,0,0,0,1,13|32,10,0,0,0,0,1,14|33,10,0,0,0,0,1,15|34,10,0,0,0,0,1,16|35,10,0,0,0,0,1,17|36,10,0,0,0,0,1,18|37,4,0,0,0,0,1,4|38,1,0,0,0,0,1,2|39,1,0,0,0,0,1,17|40,3,0,0,0,0,1,17|41,4,0,0,0,0,1,16|42,3,0,0,0,0,1,13|43,1,0,0,0,0,1,9|44,5,0,0,0,0,1,18|45,3,0,0,0,0,1,7|46,3,0,0,0,0,1,3|47,5,0,0,0,0,1,12|48,2,0,0,0,0,1,1|49,3,0,0,0,0,1,12|50,2,0,0,0,0,1,6|51,4,0,0,0,0,1,6|52,1,0,0,0,0,1,9|53,1,0,0,0,0,1,2|54,1,0,0,0,0,1,10|55,5,0,0,0,0,1,17|56,1,0,0,0,0,1,7|57,5,0,0,0,0,1,13|58,3,0,0,0,0,1,9|59,4,0,0,0,0,1,8|60,2,0,0,0,0,1,8|61,3,0,0,0,0,1,3|62,2,0,0,0,0,1,13|63,3,0,0,0,0,1,2|64,3,0,0,0,0,1,18|65,1,0,0,0,0,1,14|66,3,0,0,0,0,1,15|67,5,0,0,0,0,1,6|68,2,0,0,0,0,1,17|69,4,0,0,0,0,1,9|70,3,0,0,0,0,1,17|71,1,0,0,0,0,1,2|72,2,0,0,0,0,1,8|73,3,0,0,0,0,1,13|74,5,0,0,0,0,1,17|75,5,0,0,0,0,1,13|76,4,0,0,0,0,1,8|77,3,0,0,0,0,1,7|78,5,0,0,0,0,1,17|79,1,0,0,0,0,1,9|80,2,0,0,0,0,1,11|81,3,0,0,0,0,1,3|82,2,0,0,0,0,1,8|83,5,0,0,0,0,1,13|84,2,0,0,0,0,1,6|85,1,0,0,0,0,1,3|86,4,0,0,0,0,1,11|87,3,0,0,0,0,1,2|88,4,0,0,0,0,1,15|89,2,0,0,0,0,1,6|90,4,0,0,0,0,1,10|91,1,0,0,0,0,1,14|92,2,0,0,0,0,1,12|93,3,0,0,0,0,1,3|94,3,0,0,0,0,1,9|95,1,0,0,0,0,1,14|96,4,0,0,0,0,1,14|97,5,0,0,0,0,1,8|98,5,0,0,0,0,1,10|99,1,0,0,0,0,1,5|100,1,0,0,0,0,1,5|101,2,0,0,0,0,1,12|102,3,0,0,0,0,1,3|103,1,0,0,0,0,1,13|104,3,0,0,0,0,1,4|105,4,0,0,0,0,1,11|106,3,0,0,0,0,1,9|107,4,0,0,0,0,1,10|108,2,0,0,0,0,1,8|109,1,0,0,0,0,1,10|110,2,0,0,0,0,1,3|111,5,0,0,0,0,1,2|112,3,0,0,0,0,1,16|113,1,0,0,0,0,1,9|114,4,0,0,0,0,1,12|115,3,0,0,0,0,1,17|116,3,0,0,0,0,1,7|117,3,0,0,0,0,1,17|118,3,0,0,0,0,1,13|119,4,0,0,0,0,1,13|120,3,0,0,0,0,1,1|121,4,0,0,0,0,1,15|122,3,0,0,0,0,1,14|123,1,0,0,0,0,1,1|124,4,0,0,0,0,1,16|125,2,0,0,0,0,1,12|126,3,0,0,0,0,1,16|127,2,0,0,0,0,1,18|128,5,0,0,0,0,1,13|129,5,0,0,0,0,1,9|130,4,0,0,0,0,1,5|131,4,0,0,0,0,1,7|132,4,0,0,0,0,1,10|133,4,0,0,0,0,1,5|134,1,0,0,0,0,1,9|135,1,0,0,0,0,1,2|136,5,0,0,0,0,1,11|137,4,0,0,0,0,1,11|138,5,0,0,0,0,1,9|139,5,0,0,0,0,1,15|140,1,0,0,0,0,1,2|141,3,0,0,0,0,1,2|142,2,0,0,0,0,1,5|143,2,0,0,0,0,1,12|144,5,0,0,0,0,1,14|145,2,0,0,0,0,1,5|146,4,0,0,0,0,1,1|147,3,0,0,0,0,1,10|148,4,0,0,0,0,1,11|149,1,0,0,0,0,1,1|150,5,0,0,0,0,1,10|151,2,0,0,0,0,1,14|152,3,0,0,0,0,1,15|153,5,0,0,0,0,1,5|154,3,0,0,0,0,1,10|155,3,0,0,0,0,1,10|156,1,0,0,0,0,1,18|157,1,0,0,0,0,1,13|158,5,0,0,0,0,1,7|159,3,0,0,0,0,1,5|160,5,0,0,0,0,1,11|161,3,0,0,0,0,1,1|162,3,0,0,0,0,1,16|163,4,0,0,0,0,1,13|164,1,0,0,0,0,1,13|165,3,0,0,0,0,1,8|166,2,0,0,0,0,1,13|167,1,0,0,0,0,1,15|168,3,0,0,0,0,1,12|169,2,0,0,0,0,1,11|170,5,0,0,0,0,1,15|171,4,0,0,0,0,1,17|172,5,0,0,0,0,1,9|173,3,0,0,0,0,1,5|174,2,0,0,0,0,1,14|175,5,0,0,0,0,1,17|176,5,0,0,0,0,1,4|177,1,0,0,0,0,1,12|178,4,0,0,0,0,1,4|179,4,0,0,0,0,1,2|180,2,0,0,0,0,1,18|181,3,0,0,0,0,1,8|182,1,0,0,0,0,1,5|183,5,0,0,0,0,1,15|184,3,0,0,0,0,1,12|185,5,0,0,0,0,1,1|186,4,0,0,0,0,1,11|187,4,0,0,0,0,1,16|188,5,0,0,0,0,1,6|189,3,0,0,0,0,1,16|190,2,0,0,0,0,1,17|191,5,0,0,0,0,1,5|192,5,0,0,0,0,1,8|193,3,0,0,0,0,1,3|194,4,0,0,0,0,1,11|195,4,0,0,0,0,1,5|196,3,0,0,0,0,1,3|197,3,0,0,0,0,1,6|198,2,0,0,0,0,1,12|199,1,0,0,0,0,1,8|200,4,0,0,0,0,1,12|201,5,0,0,0,0,1,7|202,2,0,0,0,0,1,4|203,5,0,0,0,0,1,6|204,1,0,0,0,0,1,16|205,2,0,0,0,0,1,9|206,1,0,0,0,0,1,10|207,2,0,0,0,0,1,18|208,2,0,0,0,0,1,12|209,2,0,0,0,0,1,9|210,3,0,0,0,0,1,4|211,4,0,0,0,0,1,14|212,4,0,0,0,0,1,11|213,3,0,0,0,0,1,11|214,1,0,0,0,0,1,8|215,2,0,0,0,0,1,3|216,4,0,0,0,0,1,14|217,2,0,0,0,0,1,17|218,3,0,0,0,0,1,14|219,4,0,0,0,0,1,17|220,3,0,0,0,0,1,15|221,4,0,0,0,0,1,8|222,2,0,0,0,0,1,7|223,3,0,0,0,0,1,15|224,3,0,0,0,0,1,15|225,3,0,0,0,0,1,2|226,3,0,0,0,0,1,2|227,4,0,0,0,0,1,5|228,4,0,0,0,0,1,17|229,2,0,0,0,0,1,12|230,2,0,0,0,0,1,4|231,4,0,0,0,0,1,18|232,2,0,0,0,0,1,8|233,3,0,0,0,0,1,1|234,2,0,0,0,0,1,11|235,5,0,0,0,0,1,10|236,1,0,0,0,0,1,10|237,2,0,0,0,0,1,3|238,5,0,0,0,0,1,17|239,4,0,0,0,0,1,10|240,5,0,0,0,0,1,9|241,3,0,0,0,0,1,8|242,1,0,0,0,0,1,6|243,1,0,0,0,0,1,6|244,5,0,0,0,0,1,17|245,2,0,0,0,0,1,9|246,4,0,0,0,0,1,14|247,3,0,0,0,0,1,3|248,1,0,0,0,0,1,6|249,2,0,0,0,0,1,11|250,1,0,0,0,0,1,5|251,3,0,0,0,0,1,2|252,3,0,0,0,0,1,15|253,3,0,0,0,0,1,5|254,2,0,0,0,0,1,1|255,4,0,0,0,0,1,9|256,3,0,0,0,0,1,6|257,5,0,0,0,0,1,11|258,2,0,0,0,0,1,15|259,2,0,0,0,0,1,17|260,3,0,0,0,0,1,16|261,1,0,0,0,0,1,16|262,1,0,0,0,0,1,15|263,2,0,0,0,0,1,15|264,1,0,0,0,0,1,7|265,4,0,0,0,0,1,6|266,3,0,0,0,0,1,10|267,3,0,0,0,0,1,1|268,5,0,0,0,0,1,14|269,5,0,0,0,0,1,18|270,1,0,0,0,0,1,8|271,2,0,0,0,0,1,18|272,3,0,0,0,0,1,17|273,2,0,0,0,0,1,7|274,5,0,0,0,0,1,16|275,1,0,0,0,0,1,15|276,4,0,0,0,0,1,13|277,1,0,0,0,0,1,9|278,2,0,0,0,0,1,6|279,5,0,0,0,0,1,3|280,5,0,0,0,0,1,18|281,5,0,0,0,0,1,14|282,4,0,0,0,0,1,4|283,5,0,0,0,0,1,2|284,3,0,0,0,0,1,8|285,5,0,0,0,0,1,10|286,4,0,0,0,0,1,8|287,3,0,0,0,0,1,2|288,5,0,0,0,0,1,11|289,2,0,0,0,0,1,14|290,4,0,0,0,0,1,18|291,1,0,0,0,0,1,14|292,1,0,0,0,0,1,9|293,5,0,0,0,0,1,18|294,1,0,0,0,0,1,14|295,5,0,0,0,0,1,17|296,3,0,0,0,0,1,13|297,5,0,0,0,0,1,10|298,5,0,0,0,0,1,7|299,4,0,0,0,0,1,9|300,5,0,0,0,0,1,11|301,4,0,0,0,0,1,11|302,5,0,0,0,0,1,7|303,5,0,0,0,0,1,18|304,4,0,0,0,0,1,10|305,4,0,0,0,0,1,17|306,1,0,0,0,0,1,5|307,4,0,0,0,0,1,13|308,2,0,0,0,0,1,4|309,1,0,0,0,0,1,14|310,4,0,0,0,0,1,10|311,5,0,0,0,0,1,3|312,4,0,0,0,0,1,2|313,2,0,0,0,0,1,11|314,5,0,0,0,0,1,1|315,5,0,0,0,0,1,8|316,3,0,0,0,0,1,15|317,3,0,0,0,0,1,17|318,2,0,0,0,0,1,8|319,5,0,0,0,0,1,9|320,5,0,0,0,0,1,6|321,5,0,0,0,0,1,17|322,1,0,0,0,0,1,11|323,4,0,0,0,0,1,8|324,3,0,0,0,0,1,14|325,5,0,0,0,0,1,10|326,2,0,0,0,0,1,9|327,3,0,0,0,0,1,15|328,2,0,0,0,0,1,8|329,3,0,0,0,0,1,3|330,4,0,0,0,0,1,14|331,5,0,0,0,0,1,14|332,5,0,0,0,0,1,16|333,3,0,0,0,0,1,10|334,5,0,0,0,0,1,10|335,3,0,0,0,0,1,16|336,2,0,0,0,0,1,3|337,2,0,0,0,0,1,3|338,1,0,0,0,0,1,2|339,3,0,0,0,0,1,7|340,2,0,0,0,0,1,6|341,4,0,0,0,0,1,11|342,4,0,0,0,0,1,16|343,3,0,0,0,0,1,18|344,1,0,0,0,0,1,2|345,4,0,0,0,0,1,18|346,3,0,0,0,0,1,14|347,2,0,0,0,0,1,9|348,4,0,0,0,0,1,6|349,3,0,0,0,0,1,11|350,1,0,0,0,0,1,12|351,3,0,0,0,0,1,12|352,1,0,0,0,0,1,13|353,5,0,0,0,0,1,16|354,3,0,0,0,0,1,15|355,1,0,0,0,0,1,13|356,3,0,0,0,0,1,13|357,1,0,0,0,0,1,9|358,5,0,0,0,0,1,15|359,5,0,0,0,0,1,18|360,5,0,0,0,0,1,4|361,5,0,0,0,0,1,7|362,2,0,0,0,0,1,15|363,2,0,0,0,0,1,7|364,4,0,0,0,0,1,4|365,1,0,0,0,0,1,4|366,3,0,0,0,0,1,6|367,2,0,0,0,0,1,10|368,2,0,0,0,0,1,1|369,5,0,0,0,0,1,4|370,2,0,0,0,0,1,14|371,2,0,0,0,0,1,11|372,4,0,0,0,0,1,15|373,5,0,0,0,0,1,10|374,4,0,0,0,0,1,3|375,3,0,0,0,0,1,5|376,2,0,0,0,0,1,6|377,3,0,0,0,0,1,8|378,3,0,0,0,0,1,4|379,2,0,0,0,0,1,18|380,3,0,0,0,0,1,12|381,5,0,0,0,0,1,9|382,4,0,0,0,0,1,13|383,2,0,0,0,0,1,4|384,5,0,0,0,0,1,10|385,4,0,0,0,0,1,7|386,3,0,0,0,0,1,11|387,2,0,0,0,0,1,17|388,2,0,0,0,0,1,17|389,5,0,0,0,0,1,18|390,1,0,0,0,0,1,11|391,5,0,0,0,0,1,18|392,1,0,0,0,0,1,15|393,3,0,0,0,0,1,15|394,2,0,0,0,0,1,3|395,1,0,0,0,0,1,1|396,2,0,0,0,0,1,10|397,4,0,0,0,0,1,3|398,1,0,0,0,0,1,7|399,4,0,0,0,0,1,13|400,2,0,0,0,0,1,18|401,2,0,0,0,0,1,2|402,3,0,0,0,0,1,16|403,1,0,0,0,0,1,10|404,4,0,0,0,0,1,18|405,4,0,0,0,0,1,1|406,3,0,0,0,0,1,18|407,5,0,0,0,0,1,1|408,4,0,0,0,0,1,15|409,1,0,0,0,0,1,1|410,5,0,0,0,0,1,6|411,4,0,0,0,0,1,5|412,2,0,0,0,0,1,8|413,3,0,0,0,0,1,2|414,5,0,0,0,0,1,6|415,2,0,0,0,0,1,15|416,1,0,0,0,0,1,17|417,4,0,0,0,0,1,17|418,1,0,0,0,0,1,18|419,2,0,0,0,0,1,4|420,2,0,0,0,0,1,14|421,3,0,0,0,0,1,8|422,4,0,0,0,0,1,15|423,5,0,0,0,0,1,10|424,2,0,0,0,0,1,13|425,5,0,0,0,0,1,13|426,1,0,0,0,0,1,14|427,1,0,0,0,0,1,5|428,4,0,0,0,0,1,2|429,5,0,0,0,0,1,14|430,1,0,0,0,0,1,12|431,4,0,0,0,0,1,2|432,3,0,0,0,0,1,3|433,5,0,0,0,0,1,9|434,1,0,0,0,0,1,8|435,1,0,0,0,0,1,5|436,2,0,0,0,0,1,15|437,1,0,0,0,0,1,16|438,2,0,0,0,0,1,8|439,4,0,0,0,0,1,7|440,5,0,0,0,0,1,12|441,1,0,0,0,0,1,18|442,5,0,0,0,0,1,4|443,3,0,0,0,0,1,18|444,3,0,0,0,0,1,3|445,5,0,0,0,0,1,14|446,4,0,0,0,0,1,3|447,2,0,0,0,0,1,13|448,1,0,0,0,0,1,6|449,5,0,0,0,0,1,16|450,1,0,0,0,0,1,1|451,4,0,0,0,0,1,12|452,2,0,0,0,0,1,17|453,2,0,0,0,0,1,12|454,1,0,0,0,0,1,15|455,3,0,0,0,0,1,1|456,5,0,0,0,0,1,16|457,5,0,0,0,0,1,13|458,1,0,0,0,0,1,11|459,4,0,0,0,0,1,8|460,4,0,0,0,0,1,14|461,3,0,0,0,0,1,18|462,2,0,0,0,0,1,5|463,3,0,0,0,0,1,18|464,5,0,0,0,0,1,14|465,4,0,0,0,0,1,5|466,3,0,0,0,0,1,1|467,2,0,0,0,0,1,4|468,5,0,0,0,0,1,10|469,3,0,0,0,0,1,17|470,2,0,0,0,0,1,16|471,5,0,0,0,0,1,8|472,5,0,0,0,0,1,7|473,4,0,0,0,0,1,1|474,2,0,0,0,0,1,2|475,2,0,0,0,0,1,8|476,4,0,0,0,0,1,9|477,5,0,0,0,0,1,4|478,3,0,0,0,0,1,3|479,1,0,0,0,0,1,3|480,1,0,0,0,0,1,12|481,5,0,0,0,0,1,18|482,1,0,0,0,0,1,7|483,5,0,0,0,0,1,13|484,4,0,0,0,0,1,15|485,1,0,0,0,0,1,8|486,4,0,0,0,0,1,3|487,2,0,0,0,0,1,8|488,4,0,0,0,0,1,8|489,3,0,0,0,0,1,1|490,4,0,0,0,0,1,1|491,4,0,0,0,0,1,17|492,5,0,0,0,0,1,4|493,4,0,0,0,0,1,13|494,4,0,0,0,0,1,16|495,4,0,0,0,0,1,6|496,1,0,0,0,0,1,7|497,5,0,0,0,0,1,13|498,4,0,0,0,0,1,2|499,5,0,0,0,0,1,3|500,5,0,0,0,0,1,10|501,1,0,0,0,0,1,13|502,2,0,0,0,0,1,12|503,2,0,0,0,0,1,14|504,2,0,0,0,0,1,9|505,1,0,0,0,0,1,10|506,3,0,0,0,0,1,16|507,4,0,0,0,0,1,6|508,4,0,0,0,0,1,14|509,1,0,0,0,0,1,2|510,3,0,0,0,0,1,11|511,5,0,0,0,0,1,10|512,1,0,0,0,0,1,13|513,5,0,0,0,0,1,10|514,3,0,0,0,0,1,18|515,3,0,0,0,0,1,12|516,3,0,0,0,0,1,12|517,1,0,0,0,0,1,5|518,2,0,0,0,0,1,18|519,4,0,0,0,0,1,11|520,4,0,0,0,0,1,7|521,1,0,0,0,0,1,17|522,1,0,0,0,0,1,17|523,1,0,0,0,0,1,15|524,1,0,0,0,0,1,4|525,4,0,0,0,0,1,3|526,3,0,0,0,0,1,10|527,3,0,0,0,0,1,13|528,5,0,0,0,0,1,9|529,1,0,0,0,0,1,14|530,2,0,0,0,0,1,14|531,1,0,0,0,0,1,17|532,2,0,0,0,0,1,13|533,4,0,0,0,0,1,5|534,3,0,0,0,0,1,7|535,4,0,0,0,0,1,17|536,2,0,0,0,0,1,17|537,3,0,0,0,0,1,5|538,2,0,0,0,0,1,8|539,4,0,0,0,0,1,12|540,1,0,0,0,0,1,10|541,2,0,0,0,0,1,15|542,1,0,0,0,0,1,6|543,5,0,0,0,0,1,5|544,3,0,0,0,0,1,9|545,4,0,0,0,0,1,6|546,4,0,0,0,0,1,7|547,4,0,0,0,0,1,4|548,1,0,0,0,0,1,16|549,5,0,0,0,0,1,6|550,3,0,0,0,0,1,8|551,5,0,0,0,0,1,6|552,2,0,0,0,0,1,7|553,4,0,0,0,0,1,7|554,2,0,0,0,0,1,6|555,4,0,0,0,0,1,13|556,5,0,0,0,0,1,16|557,1,0,0,0,0,1,11|558,1,0,0,0,0,1,14|559,5,0,0,0,0,1,16|560,3,0,0,0,0,1,1|561,1,0,0,0,0,1,6|562,3,0,0,0,0,1,7|563,4,0,0,0,0,1,12|564,4,0,0,0,0,1,13|565,1,0,0,0,0,1,9|566,3,0,0,0,0,1,14|567,3,0,0,0,0,1,12|568,4,0,0,0,0,1,5|569,1,0,0,0,0,1,9|570,1,0,0,0,0,1,13|571,1,0,0,0,0,1,11|572,2,0,0,0,0,1,13|573,4,0,0,0,0,1,16|574,4,0,0,0,0,1,16|575,4,0,0,0,0,1,12|576,3,0,0,0,0,1,6|577,2,0,0,0,0,1,10|578,1,0,0,0,0,1,6|579,4,0,0,0,0,1,12|580,2,0,0,0,0,1,16|581,2,0,0,0,0,1,12|582,5,0,0,0,0,1,2|583,3,0,0,0,0,1,16|584,5,0,0,0,0,1,15|585,3,0,0,0,0,1,10|586,2,0,0,0,0,1,13|587,3,0,0,0,0,1,17|588,4,0,0,0,0,1,5|589,3,0,0,0,0,1,9|590,3,0,0,0,0,1,4|591,4,0,0,0,0,1,12|592,3,0,0,0,0,1,11|593,1,0,0,0,0,1,4|594,4,0,0,0,0,1,5|595,1,0,0,0,0,1,11|596,2,0,0,0,0,1,12|597,1,0,0,0,0,1,3|598,1,0,0,0,0,1,4|599,2,0,0,0,0,1,4|600,5,0,0,0,0,1,2|601,5,0,0,0,0,1,13|602,5,0,0,0,0,1,15|603,1,0,0,0,0,1,8|604,4,0,0,0,0,1,3|605,5,0,0,0,0,1,9|606,1,0,0,0,0,1,2|607,5,0,0,0,0,1,9|608,4,0,0,0,0,1,2|609,3,0,0,0,0,1,4|610,2,0,0,0,0,1,8|611,2,0,0,0,0,1,12|612,1,0,0,0,0,1,12|613,3,0,0,0,0,1,14|614,1,0,0,0,0,1,18|615,3,0,0,0,0,1,2|616,5,0,0,0,0,1,4|617,3,0,0,0,0,1,14|618,4,0,0,0,0,1,9|619,2,0,0,0,0,1,13|620,4,0,0,0,0,1,5|621,5,0,0,0,0,1,2|622,4,0,0,0,0,1,12|623,4,0,0,0,0,1,10|624,4,0,0,0,0,1,18|625,5,0,0,0,0,1,13|626,5,0,0,0,0,1,6|627,4,0,0,0,0,1,14|628,5,0,0,0,0,1,4|629,1,0,0,0,0,1,17|630,4,0,0,0,0,1,6|631,5,0,0,0,0,1,1|632,4,0,0,0,0,1,6|633,4,0,0,0,0,1,12|634,5,0,0,0,0,1,3|635,5,0,0,0,0,1,13|636,2,0,0,0,0,1,12|637,1,0,0,0,0,1,13|638,4,0,0,0,0,1,10|639,5,0,0,0,0,1,2|640,1,0,0,0,0,1,11|641,1,0,0,0,0,1,2|642,1,0,0,0,0,1,7|643,5,0,0,0,0,1,1|644,1,0,0,0,0,1,15|645,2,0,0,0,0,1,15|646,2,0,0,0,0,1,1|647,4,0,0,0,0,1,7|648,2,0,0,0,0,1,7|649,2,0,0,0,0,1,8|650,2,0,0,0,0,1,16|651,4,0,0,0,0,1,9|652,2,0,0,0,0,1,6|653,2,0,0,0,0,1,15|654,5,0,0,0,0,1,16|655,1,0,0,0,0,1,8|656,5,0,0,0,0,1,1|657,2,0,0,0,0,1,4|658,4,0,0,0,0,1,15|659,3,0,0,0,0,1,7|660,1,0,0,0,0,1,3|661,2,0,0,0,0,1,11|662,2,0,0,0,0,1,4|663,5,0,0,0,0,1,18|664,4,0,0,0,0,1,7|665,2,0,0,0,0,1,3|666,1,0,0,0,0,1,1|667,2,0,0,0,0,1,8|668,1,0,0,0,0,1,4|669,3,0,0,0,0,1,1|670,2,0,0,0,0,1,12|671,2,0,0,0,0,1,15|672,2,0,0,0,0,1,16|673,5,0,0,0,0,1,7|674,1,0,0,0,0,1,5|675,2,0,0,0,0,1,5|676,1,0,0,0,0,1,7|677,4,0,0,0,0,1,1|678,5,0,0,0,0,1,6|679,5,0,0,0,0,1,13|680,4,0,0,0,0,1,7|681,5,0,0,0,0,1,13|682,5,0,0,0,0,1,2|683,5,0,0,0,0,1,15|684,2,0,0,0,0,1,18|685,5,0,0,0,0,1,13|686,5,0,0,0,0,1,14|687,4,0,0,0,0,1,6|688,5,0,0,0,0,1,4|689,3,0,0,0,0,1,5|690,1,0,0,0,0,1,8|691,3,0,0,0,0,1,14|692,4,0,0,0,0,1,13|693,3,0,0,0,0,1,10|694,4,0,0,0,0,1,14|695,5,0,0,0,0,1,18|696,2,0,0,0,0,1,3|697,5,0,0,0,0,1,18|698,2,0,0,0,0,1,6|699,4,0,0,0,0,1,5|700,1,0,0,0,0,1,15|701,5,0,0,0,0,1,5|702,2,0,0,0,0,1,5|703,1,0,0,0,0,1,16|704,5,0,0,0,0,1,11|705,3,0,0,0,0,1,3|706,1,0,0,0,0,1,1|707,5,0,0,0,0,1,2|708,5,0,0,0,0,1,16|709,4,0,0,0,0,1,17|710,3,0,0,0,0,1,8|711,5,0,0,0,0,1,15|712,3,0,0,0,0,1,2|713,2,0,0,0,0,1,5|714,1,0,0,0,0,1,16|715,5,0,0,0,0,1,14|716,1,0,0,0,0,1,12|717,3,0,0,0,0,1,6|718,3,0,0,0,0,1,16|719,4,0,0,0,0,1,9|720,1,0,0,0,0,1,16|721,3,0,0,0,0,1,13|722,2,0,0,0,0,1,10|723,3,0,0,0,0,1,7|724,5,0,0,0,0,1,7|725,4,0,0,0,0,1,12|726,1,0,0,0,0,1,2|727,3,0,0,0,0,1,18|728,5,0,0,0,0,1,15|729,1,0,0,0,0,1,12|730,3,0,0,0,0,1,11|731,2,0,0,0,0,1,16|732,5,0,0,0,0,1,8|733,5,0,0,0,0,1,5|734,3,0,0,0,0,1,6|735,2,0,0,0,0,1,4|736,3,0,0,0,0,1,17|737,2,0,0,0,0,1,10|738,1,0,0,0,0,1,2|739,4,0,0,0,0,1,12|740,3,0,0,0,0,1,17|741,1,0,0,0,0,1,16|742,5,0,0,0,0,1,1|743,3,0,0,0,0,1,8|744,3,0,0,0,0,1,12|745,4,0,0,0,0,1,11|746,5,0,0,0,0,1,11|747,5,0,0,0,0,1,18|748,1,0,0,0,0,1,18|749,3,0,0,0,0,1,14|750,1,0,0,0,0,1,3|751,2,0,0,0,0,1,6|752,5,0,0,0,0,1,11|753,3,0,0,0,0,1,10|754,2,0,0,0,0,1,4|755,5,0,0,0,0,1,10|756,1,0,0,0,0,1,1|757,2,0,0,0,0,1,9|758,2,0,0,0,0,1,9|759,4,0,0,0,0,1,6|760,3,0,0,0,0,1,16|761,5,0,0,0,0,1,11|762,2,0,0,0,0,1,10|763,2,0,0,0,0,1,18|764,5,0,0,0,0,1,10|765,1,0,0,0,0,1,7|766,3,0,0,0,0,1,5|767,4,0,0,0,0,1,16|768,3,0,0,0,0,1,4|769,4,0,0,0,0,1,4|770,2,0,0,0,0,1,4|771,4,0,0,0,0,1,14|772,3,0,0,0,0,1,17|773,1,0,0,0,0,1,11|774,1,0,0,0,0,1,17|775,1,0,0,0,0,1,3|776,2,0,0,0,0,1,9|777,2,0,0,0,0,1,18|778,2,0,0,0,0,1,14|779,3,0,0,0,0,1,8|780,3,0,0,0,0,1,3|781,4,0,0,0,0,1,7|782,2,0,0,0,0,1,15|783,5,0,0,0,0,1,2|784,5,0,0,0,0,1,7|785,4,0,0,0,0,1,4|786,2,0,0,0,0,1,2|787,4,0,0,0,0,1,18|788,3,0,0,0,0,1,18|789,5,0,0,0,0,1,2|790,1,0,0,0,0,1,10|791,3,0,0,0,0,1,13|792,2,0,0,0,0,1,3|793,4,0,0,0,0,1,2|794,4,0,0,0,0,1,11|795,1,0,0,0,0,1,9|796,1,0,0,0,0,1,7|797,5,0,0,0,0,1,10|798,4,0,0,0,0,1,5|799,1,0,0,0,0,1,17|800,4,0,0,0,0,1,4|801,1,0,0,0,0,1,8|802,3,0,0,0,0,1,3|803,4,0,0,0,0,1,6|804,4,0,0,0,0,1,2|805,4,0,0,0,0,1,9|806,5,0,0,0,0,1,12|807,2,0,0,0,0,1,2|808,2,0,0,0,0,1,6|809,1,0,0,0,0,1,3|810,5,0,0,0,0,1,7|811,3,0,0,0,0,1,15|812,3,0,0,0,0,1,4|813,1,0,0,0,0,1,1|814,2,0,0,0,0,1,8|815,5,0,0,0,0,1,9|816,2,0,0,0,0,1,7|817,5,0,0,0,0,1,5|818,3,0,0,0,0,1,18|819,3,0,0,0,0,1,5|820,5,0,0,0,0,1,15|821,2,0,0,0,0,1,11|822,2,0,0,0,0,1,12|823,5,0,0,0,0,1,8|824,1,0,0,0,0,1,17|825,3,0,0,0,0,1,15|826,2,0,0,0,0,1,2|827,1,0,0,0,0,1,18|828,1,0,0,0,0,1,1|829,1,0,0,0,0,1,2|830,2,0,0,0,0,1,4|831,5,0,0,0,0,1,1|832,1,0,0,0,0,1,5|833,4,0,0,0,0,1,11|834,1,0,0,0,0,1,3|835,4,0,0,0,0,1,9|836,2,0,0,0,0,1,4|837,1,0,0,0,0,1,11|838,4,0,0,0,0,1,8|839,4,0,0,0,0,1,6|840,5,0,0,0,0,1,15|841,4,0,0,0,0,1,6|842,4,0,0,0,0,1,1|843,3,0,0,0,0,1,11|844,4,0,0,0,0,1,2|845,2,0,0,0,0,1,15|846,2,0,0,0,0,1,16|847,1,0,0,0,0,1,9|848,2,0,0,0,0,1,10|849,1,0,0,0,0,1,6|850,5,0,0,0,0,1,14|851,4,0,0,0,0,1,17|852,5,0,0,0,0,1,13|853,4,0,0,0,0,1,5|854,3,0,0,0,0,1,18|855,2,0,0,0,0,1,2|856,4,0,0,0,0,1,15|857,4,0,0,0,0,1,18|858,5,0,0,0,0,1,7|859,2,0,0,0,0,1,4|860,4,0,0,0,0,1,13|861,5,0,0,0,0,1,1|862,3,0,0,0,0,1,10|863,3,0,0,0,0,1,7|864,4,0,0,0,0,1,10|865,4,0,0,0,0,1,14|866,2,0,0,0,0,1,8|867,4,0,0,0,0,1,4|868,3,0,0,0,0,1,1|869,1,0,0,0,0,1,16|870,1,0,0,0,0,1,1|871,2,0,0,0,0,1,7|872,3,0,0,0,0,1,3|873,2,0,0,0,0,1,3|874,2,0,0,0,0,1,4|875,1,0,0,0,0,1,16|876,5,0,0,0,0,1,12|877,5,0,0,0,0,1,3|878,1,0,0,0,0,1,1|879,2,0,0,0,0,1,5|880,3,0,0,0,0,1,8|881,2,0,0,0,0,1,16|882,1,0,0,0,0,1,11|883,2,0,0,0,0,1,7|884,3,0,0,0,0,1,14|885,4,0,0,0,0,1,10|886,5,0,0,0,0,1,17|887,2,0,0,0,0,1,1|888,1,0,0,0,0,1,17|889,2,0,0,0,0,1,11|890,5,0,0,0,0,1,4|891,4,0,0,0,0,1,4|892,3,0,0,0,0,1,5|893,2,0,0,0,0,1,1|894,4,0,0,0,0,1,16|895,4,0,0,0,0,1,1|896,2,0,0,0,0,1,12|897,5,0,0,0,0,1,3|898,4,0,0,0,0,1,12|899,2,0,0,0,0,1,6|900,5,0,0,0,0,1,4|901,5,0,0,0,0,1,7|902,5,0,0,0,0,1,1|903,5,0,0,0,0,1,14|904,3,0,0,0,0,1,7|905,5,0,0,0,0,1,9|906,4,0,0,0,0,1,6|907,4,0,0,0,0,1,7|908,5,0,0,0,0,1,5|909,1,0,0,0,0,1,4|910,2,0,0,0,0,1,2|911,1,0,0,0,0,1,7|912,2,0,0,0,0,1,18|913,1,0,0,0,0,1,16|914,4,0,0,0,0,1,5|915,2,0,0,0,0,1,11|916,1,0,0,0,0,1,18|917,5,0,0,0,0,1,16|918,3,0,0,0,0,1,1|919,4,0,0,0,0,1,14|920,1,0,0,0,0,1,12|921,4,0,0,0,0,1,11|922,2,0,0,0,0,1,7|923,1,0,0,0,0,1,2|924,3,0,0,0,0,1,9|925,4,0,0,0,0,1,18|926,3,0,0,0,0,1,8|927,5,0,0,0,0,1,12|928,5,0,0,0,0,1,14|929,3,0,0,0,0,1,2|930,2,0,0,0,0,1,3|931,1,0,0,0,0,1,1|932,5,0,0,0,0,1,13|933,4,0,0,0,0,1,5|934,3,0,0,0,0,1,1|935,1,0,0,0,0,1,17|936,2,0,0,0,0,1,9|937,1,0,0,0,0,1,15|938,2,0,0,0,0,1,6|939,5,0,0,0,0,1,6|940,4,0,0,0,0,1,3|941,2,0,0,0,0,1,9|942,5,0,0,0,0,1,5|943,2,0,0,0,0,1,14|944,5,0,0,0,0,1,5|945,2,0,0,0,0,1,18|946,1,0,0,0,0,1,8|947,1,0,0,0,0,1,15|948,3,0,0,0,0,1,17|949,2,0,0,0,0,1,9|950,2,0,0,0,0,1,16|951,3,0,0,0,0,1,17|952,5,0,0,0,0,1,4|953,3,0,0,0,0,1,6|954,1,0,0,0,0,1,1|955,1,0,0,0,0,1,1|956,4,0,0,0,0,1,17|957,2,0,0,0,0,1,13|958,4,0,0,0,0,1,4|959,5,0,0,0,0,1,2|960,4,0,0,0,0,1,7|961,3,0,0,0,0,1,3|962,2,0,0,0,0,1,3|963,5,0,0,0,0,1,12|964,1,0,0,0,0,1,14|965,1,0,0,0,0,1,5|966,2,0,0,0,0,1,9|967,5,0,0,0,0,1,4|968,4,0,0,0,0,1,11|969,1,0,0,0,0,1,9|970,3,0,0,0,0,1,17|971,3,0,0,0,0,1,16|972,4,0,0,0,0,1,3|973,5,0,0,0,0,1,11|974,2,0,0,0,0,1,16|975,2,0,0,0,0,1,16|976,4,0,0,0,0,1,18|977,1,0,0,0,0,1,1|978,3,0,0,0,0,1,16|979,4,0,0,0,0,1,12|980,3,0,0,0,0,1,1|981,3,0,0,0,0,1,5|982,3,0,0,0,0,1,1|983,5,0,0,0,0,1,11|984,4,0,0,0,0,1,15|985,1,0,0,0,0,1,3|986,2,0,0,0,0,1,18|987,4,0,0,0,0,1,17|988,4,0,0,0,0,1,3|989,3,0,0,0,0,1,2|990,1,0,0,0,0,1,10|];
